<number of tasks>
50

<cycle time>
1000

<order strength>
0.6


<task times>
1 512
2 318
3 559
4 412
5 488
6 550
7 686
8 375
9 477
10 411
11 588
12 234
13 465
14 315
15 283
16 759
17 797
18 698
19 763
20 548
21 288
22 572
23 450
24 479
25 579
26 532
27 123
28 302
29 593
30 159
31 455
32 715
33 404
34 508
35 473
36 662
37 652
38 517
39 481
40 444
41 295
42 328
43 678
44 652
45 635
46 524
47 501
48 445
49 657
50 620

<precedence relations>
1,5
1,6
2,8
2,9
2,10
3,6
4,7
4,8
5,11
5,12
5,17
6,16
6,17
7,11
7,12
9,11
9,13
10,18
10,29
10,34
11,14
11,15
12,24
13,15
13,16
13,17
14,18
14,20
14,22
15,18
15,19
15,41
16,18
16,19
16,20
16,21
16,22
17,32
17,34
17,35
18,23
19,25
20,41
21,24
22,27
22,38
22,40
23,26
23,28
23,35
24,27
24,29
25,34
26,36
27,30
27,34
28,32
29,31
29,32
29,33
29,35
30,39
30,41
31,37
31,38
32,37
32,39
32,45
33,40
34,37
35,36
35,38
36,42
36,43
36,46
37,48
37,50
38,49
39,43
39,44
40,42
41,45
41,46
42,47
42,50
43,49
44,48
46,50

<end>
